NAME : covtype.pruned_global_4.0.tour
COMMENT : Length = 0
TYPE : TOUR
DIMENSION : 54
TOUR_SECTION
15
17
19
21
23
28
30
32
34
39
41
43
2
45
6
27
1
44
10
26
3
36
11
37
9
38
13
24
14
7
12
5
52
8
47
4
46
49
51
54
53
50
48
42
40
35
33
31
29
25
22
20
18
16
-1
EOF
